Loading python version 3.12.3
Removing conda version miniforge3-24.7.1
No conda package cache directories found outside your home directory. To prevent conda from filling up your home directory, you can create a new
directory at `/work/pi_<your_pi_name>/$USER/.conda/pkgs` and reload the module. 
No conda environment directories found outside your home directory. To prevent conda from filling up your home directory, you can create a new
directory at `/work/pi_<your_pi_name>/$USER/.conda/envs` and reload the module. 
Loading conda version miniforge3-24.7.1
Loading libpciaccess version 0.17
Loading libiconv version 1.17
Loading xz version 5.4.6
Loading zlib-ng version 2.1.6
Loading libxml2 version 2.10.3
Loading ncurses version 6.5
Loading hwloc version 2.9.1
Loading openssl version 3.0.13
Loading libevent version 2.1.12
Loading numactl version 2.0.14
Loading openssh version 9.6p1
Loading slurm version 23.11.8
Loading openmpi version 5.0.3

######################################
######################################

    Coarse-Grained Shell Simulator   
    
        Kyle Thomas Sullivan
       kyltsullivan@umass.edu
       
######################################
######################################

Using curvsim v2

######################################
Running data/examples/2d/emin/wx-10.000-t0-0.600-Nbeads-30/fraction-0.333/species-1/r0-{'A': 6.5}/sigma-0.25000/kh-10.00000/nshells-13/cg-12
Run number 1
Using stack-1species-1k0.py to create data file...
nshells = 13
...preparing new simulation data
...making data file
Compute time to create data file: 0d - 0hrs 0min 0.028056859970092773sec
Updating metadata with start time...
Executing LAMMPS...
LAMMPS (23 Jun 2022 - Update 2)
Reading data file ...
  orthogonal box = (-20 -26 -0.5) to (20 110.5 0.5)
  1 by 1 by 1 MPI processor grid
  reading atoms ...
  780 atoms
  scanning bonds ...
  4 = max bonds/atom
  reading bonds ...
  1898 bonds
Finding 1-2 1-3 1-4 neighbors ...
  special bond factors lj:    0        0        0       
  special bond factors coul:  0        0        0       
     5 = max # of 1-2 neighbors
    20 = max # of 1-3 neighbors
   100 = max # of 1-4 neighbors
    13 = max # of special neighbors
  special bonds CPU = 0.001 seconds
  read_data CPU = 0.026 seconds
New timer settings: style=normal  mode=nosync  timeout=00:30:00
WARNING: Using 'neigh_modify every 1 delay 0 check yes' setting during minimization (../min.cpp:187)
Generated 0 of 21 mixed pair_coeff terms from geometric mixing rule
Neighbor list info ...
  update every 1 steps, delay 0 steps, check yes
  max neighbors/atom: 2000, page size: 100000
  master list distance cutoff = 1.55
  ghost atom cutoff = 2.6
  binsize = 0.775, bins = 52 177 2
  1 neighbor lists, perpetual/occasional/extra = 1 0 0
  (1) pair lj/expand, perpetual
      attributes: half, newton on
      pair build: half/bin/newton
      stencil: half/bin/2d
      bin: standard
Setting up cg style minimization ...
  Unit style    : lj
  Current step  : 0
  Walltime left : 0:29:59.98
Per MPI rank memory allocation (min/avg/max) = 11.47 | 11.47 | 11.47 Mbytes
   Step         TotEng         KinEng         PotEng         E_pair         E_bond          Temp          Press     
         0  -10.490367      0             -10.490367     -10.768754      0.27838673     0             -0.0095764966 
        61  -11.707166      0             -11.707166     -12.166124      0.45895809     0             -0.0018306838 
Loop time of 0.0250662 on 1 procs for 61 steps with 780 atoms

99.1% CPU use with 1 MPI tasks x no OpenMP threads

Minimization stats:
  Stopping criterion = energy tolerance
  Energy initial, next-to-last, final = 
     -10.4903674279893   -11.707166375558  -11.7071663755629
  Force two-norm initial, final = 7.7563437 0.4110246
  Force max component initial, final = 0.39107009 0.11103982
  Final line search alpha, max atom move = 0.056286114 0.00625
  Iterations, force evaluations = 61 331

MPI task timing breakdown:
Section |  min time  |  avg time  |  max time  |%varavg| %total
---------------------------------------------------------------
Pair    | 0.011217   | 0.011217   | 0.011217   |   0.0 | 44.75
Bond    | 0.007085   | 0.007085   | 0.007085   |   0.0 | 28.26
Neigh   | 0.00028443 | 0.00028443 | 0.00028443 |   0.0 |  1.13
Comm    | 7.9763e-05 | 7.9763e-05 | 7.9763e-05 |   0.0 |  0.32
Output  | 0          | 0          | 0          |   0.0 |  0.00
Modify  | 0.00027663 | 0.00027663 | 0.00027663 |   0.0 |  1.10
Other   |            | 0.006123   |            |       | 24.43

Nlocal:            780 ave         780 max         780 min
Histogram: 1 0 0 0 0 0 0 0 0 0
Nghost:              0 ave           0 max           0 min
Histogram: 1 0 0 0 0 0 0 0 0 0
Neighs:           2086 ave        2086 max        2086 min
Histogram: 1 0 0 0 0 0 0 0 0 0

Total # of neighbors = 2086
Ave neighs/atom = 2.674359
Ave special neighs/atom = 12.2
Neighbor list builds = 1
Dangerous builds = 0
System init for write_restart ...
Generated 0 of 21 mixed pair_coeff terms from geometric mixing rule
Total wall time: 0:00:00
LAMMPS Runtime: 0.0hrs 0.0min 0.4sec
Updating metadata with run info ...
Done.
