Loading python version 3.12.3
Removing conda version miniforge3-24.7.1
No conda package cache directories found outside your home directory. To prevent conda from filling up your home directory, you can create a new
directory at `/work/pi_<your_pi_name>/$USER/.conda/pkgs` and reload the module. 
No conda environment directories found outside your home directory. To prevent conda from filling up your home directory, you can create a new
directory at `/work/pi_<your_pi_name>/$USER/.conda/envs` and reload the module. 
Loading conda version miniforge3-24.7.1
Loading libpciaccess version 0.17
Loading libiconv version 1.17
Loading xz version 5.4.6
Loading zlib-ng version 2.1.6
Loading libxml2 version 2.10.3
Loading ncurses version 6.5
Loading hwloc version 2.9.1
Loading openssl version 3.0.13
Loading libevent version 2.1.12
Loading numactl version 2.0.14
Loading openssh version 9.6p1
Loading slurm version 23.11.8
Loading openmpi version 5.0.3

######################################
######################################

    Coarse-Grained Shell Simulator   
    
        Kyle Thomas Sullivan
       kyltsullivan@umass.edu
       
######################################
######################################

Using curvsim v2

######################################
Running data/examples/2d/emin/wx-10.000-t0-0.600-Nbeads-30/fraction-0.333/species-1/r0-{'A': 6.5}/sigma-0.25000/kh-10.00000/nshells-21/cg-12
Run number 1
Using stack-1species-1k0.py to create data file...
nshells = 21
...preparing new simulation data
...making data file
Compute time to create data file: 0d - 0hrs 0min 0.08878231048583984sec
Updating metadata with start time...
Executing LAMMPS...
LAMMPS (23 Jun 2022 - Update 2)
Reading data file ...
  orthogonal box = (-20 -26 -0.5) to (20 162.5 0.5)
  1 by 1 by 1 MPI processor grid
  reading atoms ...
  1260 atoms
  scanning bonds ...
  4 = max bonds/atom
  reading bonds ...
  3066 bonds
Finding 1-2 1-3 1-4 neighbors ...
  special bond factors lj:    0        0        0       
  special bond factors coul:  0        0        0       
     5 = max # of 1-2 neighbors
    20 = max # of 1-3 neighbors
   100 = max # of 1-4 neighbors
    13 = max # of special neighbors
  special bonds CPU = 0.004 seconds
  read_data CPU = 0.041 seconds
New timer settings: style=normal  mode=nosync  timeout=00:30:00
WARNING: Using 'neigh_modify every 1 delay 0 check yes' setting during minimization (../min.cpp:187)
Generated 0 of 21 mixed pair_coeff terms from geometric mixing rule
Neighbor list info ...
  update every 1 steps, delay 0 steps, check yes
  max neighbors/atom: 2000, page size: 100000
  master list distance cutoff = 1.55
  ghost atom cutoff = 2.6
  binsize = 0.775, bins = 52 244 2
  1 neighbor lists, perpetual/occasional/extra = 1 0 0
  (1) pair lj/expand, perpetual
      attributes: half, newton on
      pair build: half/bin/newton
      stencil: half/bin/2d
      bin: standard
Setting up cg style minimization ...
  Unit style    : lj
  Current step  : 0
  Walltime left : 0:29:59.99
Per MPI rank memory allocation (min/avg/max) = 11.62 | 11.62 | 11.62 Mbytes
   Step         TotEng         KinEng         PotEng         E_pair         E_bond          Temp          Press     
         0  -17.853337      0             -17.853337     -18.496979      0.64364219     0             -0.011941677  
       124  -20.003371      0             -20.003371     -20.975387      0.97201582     0             -0.0012237204 
Loop time of 0.153861 on 1 procs for 124 steps with 1260 atoms

88.6% CPU use with 1 MPI tasks x no OpenMP threads

Minimization stats:
  Stopping criterion = energy tolerance
  Energy initial, next-to-last, final = 
     -17.8533367914797  -20.0033708060581  -20.0033708060689
  Force two-norm initial, final = 10.272447 0.64935247
  Force max component initial, final = 0.39173298 0.12672554
  Final line search alpha, max atom move = 0.049319182 0.00625
  Iterations, force evaluations = 124 558

MPI task timing breakdown:
Section |  min time  |  avg time  |  max time  |%varavg| %total
---------------------------------------------------------------
Pair    | 0.064347   | 0.064347   | 0.064347   |   0.0 | 41.82
Bond    | 0.040291   | 0.040291   | 0.040291   |   0.0 | 26.19
Neigh   | 0.012773   | 0.012773   | 0.012773   |   0.0 |  8.30
Comm    | 0.00050224 | 0.00050224 | 0.00050224 |   0.0 |  0.33
Output  | 0          | 0          | 0          |   0.0 |  0.00
Modify  | 0.0015056  | 0.0015056  | 0.0015056  |   0.0 |  0.98
Other   |            | 0.03444    |            |       | 22.39

Nlocal:           1260 ave        1260 max        1260 min
Histogram: 1 0 0 0 0 0 0 0 0 0
Nghost:              0 ave           0 max           0 min
Histogram: 1 0 0 0 0 0 0 0 0 0
Neighs:           3550 ave        3550 max        3550 min
Histogram: 1 0 0 0 0 0 0 0 0 0

Total # of neighbors = 3550
Ave neighs/atom = 2.8174603
Ave special neighs/atom = 12.2
Neighbor list builds = 14
Dangerous builds = 0
System init for write_restart ...
Generated 0 of 21 mixed pair_coeff terms from geometric mixing rule
Total wall time: 0:00:00
LAMMPS Runtime: 0.0hrs 0.0min 0.6sec
Updating metadata with run info ...
Done.
