Loading python version 3.12.3
Removing conda version miniforge3-24.7.1
No conda package cache directories found outside your home directory. To prevent conda from filling up your home directory, you can create a new
directory at `/work/pi_<your_pi_name>/$USER/.conda/pkgs` and reload the module. 
No conda environment directories found outside your home directory. To prevent conda from filling up your home directory, you can create a new
directory at `/work/pi_<your_pi_name>/$USER/.conda/envs` and reload the module. 
Loading conda version miniforge3-24.7.1
Loading libpciaccess version 0.17
Loading libiconv version 1.17
Loading xz version 5.4.6
Loading zlib-ng version 2.1.6
Loading libxml2 version 2.10.3
Loading ncurses version 6.5
Loading hwloc version 2.9.1
Loading openssl version 3.0.13
Loading libevent version 2.1.12
Loading numactl version 2.0.14
Loading openssh version 9.6p1
Loading slurm version 23.11.8
Loading openmpi version 5.0.3

######################################
######################################

    Coarse-Grained Shell Simulator   
    
        Kyle Thomas Sullivan
       kyltsullivan@umass.edu
       
######################################
######################################

Using curvsim v2

######################################
Running data/examples/2d/emin/wx-10.000-t0-0.600-Nbeads-30/fraction-0.333/species-1/r0-{'A': 6.5}/sigma-0.25000/kh-10.00000/nshells-14/cg-12
Run number 1
Using stack-1species-1k0.py to create data file...
nshells = 14
...preparing new simulation data
...making data file
Compute time to create data file: 0d - 0hrs 0min 0.03219270706176758sec
Updating metadata with start time...
Executing LAMMPS...
LAMMPS (23 Jun 2022 - Update 2)
Reading data file ...
  orthogonal box = (-20 -26 -0.5) to (20 117 0.5)
  1 by 1 by 1 MPI processor grid
  reading atoms ...
  840 atoms
  scanning bonds ...
  4 = max bonds/atom
  reading bonds ...
  2044 bonds
Finding 1-2 1-3 1-4 neighbors ...
  special bond factors lj:    0        0        0       
  special bond factors coul:  0        0        0       
     5 = max # of 1-2 neighbors
    20 = max # of 1-3 neighbors
   100 = max # of 1-4 neighbors
    13 = max # of special neighbors
  special bonds CPU = 0.002 seconds
  read_data CPU = 0.019 seconds
New timer settings: style=normal  mode=nosync  timeout=00:30:00
WARNING: Using 'neigh_modify every 1 delay 0 check yes' setting during minimization (../min.cpp:187)
Generated 0 of 21 mixed pair_coeff terms from geometric mixing rule
Neighbor list info ...
  update every 1 steps, delay 0 steps, check yes
  max neighbors/atom: 2000, page size: 100000
  master list distance cutoff = 1.55
  ghost atom cutoff = 2.6
  binsize = 0.775, bins = 52 185 2
  1 neighbor lists, perpetual/occasional/extra = 1 0 0
  (1) pair lj/expand, perpetual
      attributes: half, newton on
      pair build: half/bin/newton
      stencil: half/bin/2d
      bin: standard
Setting up cg style minimization ...
  Unit style    : lj
  Current step  : 0
  Walltime left : 0:29:59.98
Per MPI rank memory allocation (min/avg/max) = 11.49 | 11.49 | 11.49 Mbytes
   Step         TotEng         KinEng         PotEng         E_pair         E_bond          Temp          Press     
         0  -11.404935      0             -11.404935     -11.724165      0.31923072     0             -0.00995151   
      1568  -13.476753      0             -13.476753     -14.24765       0.7708964      0             -2.6421008e-08
Loop time of 0.348388 on 1 procs for 1568 steps with 840 atoms

97.2% CPU use with 1 MPI tasks x no OpenMP threads

Minimization stats:
  Stopping criterion = energy tolerance
  Energy initial, next-to-last, final = 
     -11.4049345134245  -13.4767533145125  -13.4767533145258
  Force two-norm initial, final = 8.1003917 2.4818106e-05
  Force max component initial, final = 0.39121025 2.6944759e-06
  Final line search alpha, max atom move = 1 2.6944759e-06
  Iterations, force evaluations = 1568 4774

MPI task timing breakdown:
Section |  min time  |  avg time  |  max time  |%varavg| %total
---------------------------------------------------------------
Pair    | 0.17251    | 0.17251    | 0.17251    |   0.0 | 49.52
Bond    | 0.11095    | 0.11095    | 0.11095    |   0.0 | 31.85
Neigh   | 0.017638   | 0.017638   | 0.017638   |   0.0 |  5.06
Comm    | 0.001454   | 0.001454   | 0.001454   |   0.0 |  0.42
Output  | 0          | 0          | 0          |   0.0 |  0.00
Modify  | 0.0042149  | 0.0042149  | 0.0042149  |   0.0 |  1.21
Other   |            | 0.04162    |            |       | 11.95

Nlocal:            840 ave         840 max         840 min
Histogram: 1 0 0 0 0 0 0 0 0 0
Nghost:              0 ave           0 max           0 min
Histogram: 1 0 0 0 0 0 0 0 0 0
Neighs:           2405 ave        2405 max        2405 min
Histogram: 1 0 0 0 0 0 0 0 0 0

Total # of neighbors = 2405
Ave neighs/atom = 2.8630952
Ave special neighs/atom = 12.2
Neighbor list builds = 56
Dangerous builds = 0
System init for write_restart ...
Generated 0 of 21 mixed pair_coeff terms from geometric mixing rule
Total wall time: 0:00:00
LAMMPS Runtime: 0.0hrs 0.0min 0.8sec
Updating metadata with run info ...
Done.
