Loading python version 3.12.3
Removing conda version miniforge3-24.7.1
No conda package cache directories found outside your home directory. To prevent conda from filling up your home directory, you can create a new
directory at `/work/pi_<your_pi_name>/$USER/.conda/pkgs` and reload the module. 
No conda environment directories found outside your home directory. To prevent conda from filling up your home directory, you can create a new
directory at `/work/pi_<your_pi_name>/$USER/.conda/envs` and reload the module. 
Loading conda version miniforge3-24.7.1
Loading libpciaccess version 0.17
Loading libiconv version 1.17
Loading xz version 5.4.6
Loading zlib-ng version 2.1.6
Loading libxml2 version 2.10.3
Loading ncurses version 6.5
Loading hwloc version 2.9.1
Loading openssl version 3.0.13
Loading libevent version 2.1.12
Loading numactl version 2.0.14
Loading openssh version 9.6p1
Loading slurm version 23.11.8
Loading openmpi version 5.0.3

######################################
######################################

    Coarse-Grained Shell Simulator   
    
        Kyle Thomas Sullivan
       kyltsullivan@umass.edu
       
######################################
######################################

Using curvsim v2

######################################
Running data/examples/2d/emin/wx-10.000-t0-0.600-Nbeads-30/fraction-0.333/species-1/r0-{'A': 6.5}/sigma-0.25000/kh-10.00000/nshells-18/cg-12
Run number 1
Using stack-1species-1k0.py to create data file...
nshells = 18
...preparing new simulation data
...making data file
Compute time to create data file: 0d - 0hrs 0min 0.07926106452941895sec
Updating metadata with start time...
Executing LAMMPS...
LAMMPS (23 Jun 2022 - Update 2)
Reading data file ...
  orthogonal box = (-20 -26 -0.5) to (20 143 0.5)
  1 by 1 by 1 MPI processor grid
  reading atoms ...
  1080 atoms
  scanning bonds ...
  4 = max bonds/atom
  reading bonds ...
  2628 bonds
Finding 1-2 1-3 1-4 neighbors ...
  special bond factors lj:    0        0        0       
  special bond factors coul:  0        0        0       
     5 = max # of 1-2 neighbors
    20 = max # of 1-3 neighbors
   100 = max # of 1-4 neighbors
    13 = max # of special neighbors
  special bonds CPU = 0.004 seconds
  read_data CPU = 0.036 seconds
New timer settings: style=normal  mode=nosync  timeout=00:30:00
WARNING: Using 'neigh_modify every 1 delay 0 check yes' setting during minimization (../min.cpp:187)
Generated 0 of 21 mixed pair_coeff terms from geometric mixing rule
Neighbor list info ...
  update every 1 steps, delay 0 steps, check yes
  max neighbors/atom: 2000, page size: 100000
  master list distance cutoff = 1.55
  ghost atom cutoff = 2.6
  binsize = 0.775, bins = 52 219 2
  1 neighbor lists, perpetual/occasional/extra = 1 0 0
  (1) pair lj/expand, perpetual
      attributes: half, newton on
      pair build: half/bin/newton
      stencil: half/bin/2d
      bin: standard
Setting up cg style minimization ...
  Unit style    : lj
  Current step  : 0
  Walltime left : 0:29:59.99
Per MPI rank memory allocation (min/avg/max) = 11.56 | 11.56 | 11.56 Mbytes
   Step         TotEng         KinEng         PotEng         E_pair         E_bond          Temp          Press     
         0  -15.085645      0             -15.085645     -15.583168      0.497523       0             -0.011210811  
      1729  -17.637341      0             -17.637341     -18.636388      0.99904736     0             -6.5023763e-08
Loop time of 0.982731 on 1 procs for 1729 steps with 1080 atoms

97.3% CPU use with 1 MPI tasks x no OpenMP threads

Minimization stats:
  Stopping criterion = energy tolerance
  Energy initial, next-to-last, final = 
     -15.0856451395821  -17.6373406564034  -17.6373406564209
  Force two-norm initial, final = 9.3962895 2.9834677e-05
  Force max component initial, final = 0.39157563 4.2326381e-06
  Final line search alpha, max atom move = 1 4.2326381e-06
  Iterations, force evaluations = 1729 5448

MPI task timing breakdown:
Section |  min time  |  avg time  |  max time  |%varavg| %total
---------------------------------------------------------------
Pair    | 0.49722    | 0.49722    | 0.49722    |   0.0 | 50.60
Bond    | 0.3073     | 0.3073     | 0.3073     |   0.0 | 31.27
Neigh   | 0.048582   | 0.048582   | 0.048582   |   0.0 |  4.94
Comm    | 0.0040558  | 0.0040558  | 0.0040558  |   0.0 |  0.41
Output  | 0          | 0          | 0          |   0.0 |  0.00
Modify  | 0.012331   | 0.012331   | 0.012331   |   0.0 |  1.25
Other   |            | 0.1132     |            |       | 11.52

Nlocal:           1080 ave        1080 max        1080 min
Histogram: 1 0 0 0 0 0 0 0 0 0
Nghost:              0 ave           0 max           0 min
Histogram: 1 0 0 0 0 0 0 0 0 0
Neighs:           3162 ave        3162 max        3162 min
Histogram: 1 0 0 0 0 0 0 0 0 0

Total # of neighbors = 3162
Ave neighs/atom = 2.9277778
Ave special neighs/atom = 12.2
Neighbor list builds = 62
Dangerous builds = 0
System init for write_restart ...
Generated 0 of 21 mixed pair_coeff terms from geometric mixing rule
Total wall time: 0:00:01
LAMMPS Runtime: 0.0hrs 0.0min 1.4sec
Updating metadata with run info ...
Done.
