Loading python version 3.12.3
Removing conda version miniforge3-24.7.1
No conda package cache directories found outside your home directory. To prevent conda from filling up your home directory, you can create a new
directory at `/work/pi_<your_pi_name>/$USER/.conda/pkgs` and reload the module. 
No conda environment directories found outside your home directory. To prevent conda from filling up your home directory, you can create a new
directory at `/work/pi_<your_pi_name>/$USER/.conda/envs` and reload the module. 
Loading conda version miniforge3-24.7.1
Loading libpciaccess version 0.17
Loading libiconv version 1.17
Loading xz version 5.4.6
Loading zlib-ng version 2.1.6
Loading libxml2 version 2.10.3
Loading ncurses version 6.5
Loading hwloc version 2.9.1
Loading openssl version 3.0.13
Loading libevent version 2.1.12
Loading numactl version 2.0.14
Loading openssh version 9.6p1
Loading slurm version 23.11.8
Loading openmpi version 5.0.3

######################################
######################################

    Coarse-Grained Shell Simulator   
    
        Kyle Thomas Sullivan
       kyltsullivan@umass.edu
       
######################################
######################################

Using curvsim v2

######################################
Running data/examples/2d/emin/wx-10.000-t0-0.600-Nbeads-30/fraction-0.333/species-1/r0-{'A': 6.5}/sigma-0.25000/kh-10.00000/nshells-38/cg-12
Run number 1
Using stack-1species-1k0.py to create data file...
nshells = 38
...preparing new simulation data
...making data file
Compute time to create data file: 0d - 0hrs 0min 0.14457201957702637sec
Updating metadata with start time...
Executing LAMMPS...
LAMMPS (23 Jun 2022 - Update 2)
Reading data file ...
  orthogonal box = (-20 -26 -0.5) to (20 273 0.5)
  1 by 1 by 1 MPI processor grid
  reading atoms ...
  2280 atoms
  scanning bonds ...
  4 = max bonds/atom
  reading bonds ...
  5548 bonds
Finding 1-2 1-3 1-4 neighbors ...
  special bond factors lj:    0        0        0       
  special bond factors coul:  0        0        0       
     5 = max # of 1-2 neighbors
    20 = max # of 1-3 neighbors
   100 = max # of 1-4 neighbors
    13 = max # of special neighbors
  special bonds CPU = 0.007 seconds
  read_data CPU = 0.050 seconds
New timer settings: style=normal  mode=nosync  timeout=00:30:00
WARNING: Using 'neigh_modify every 1 delay 0 check yes' setting during minimization (../min.cpp:187)
Generated 0 of 21 mixed pair_coeff terms from geometric mixing rule
Neighbor list info ...
  update every 1 steps, delay 0 steps, check yes
  max neighbors/atom: 2000, page size: 100000
  master list distance cutoff = 1.55
  ghost atom cutoff = 2.6
  binsize = 0.775, bins = 52 386 2
  1 neighbor lists, perpetual/occasional/extra = 1 0 0
  (1) pair lj/expand, perpetual
      attributes: half, newton on
      pair build: half/bin/newton
      stencil: half/bin/2d
      bin: standard
Setting up cg style minimization ...
  Unit style    : lj
  Current step  : 0
  Walltime left : 0:29:59.99
Per MPI rank memory allocation (min/avg/max) = 11.95 | 11.95 | 11.95 Mbytes
   Step         TotEng         KinEng         PotEng         E_pair         E_bond          Temp          Press     
         0  -33.413283      0             -33.413283     -35.001325      1.5880427      0             -0.014027027  
      2597  -38.443174      0             -38.443174     -40.601511      2.1583377      0             -9.6542965e-08
Loop time of 2.08114 on 1 procs for 2597 steps with 2280 atoms

98.7% CPU use with 1 MPI tasks x no OpenMP threads

Minimization stats:
  Stopping criterion = energy tolerance
  Energy initial, next-to-last, final = 
     -33.4132825942106  -38.4431736109078  -38.4431736109448
  Force two-norm initial, final = 13.9611 4.2854068e-05
  Force max component initial, final = 0.39205449 4.2007917e-06
  Final line search alpha, max atom move = 1 4.2007917e-06
  Iterations, force evaluations = 2597 6677

MPI task timing breakdown:
Section |  min time  |  avg time  |  max time  |%varavg| %total
---------------------------------------------------------------
Pair    | 1.0482     | 1.0482     | 1.0482     |   0.0 | 50.36
Bond    | 0.62627    | 0.62627    | 0.62627    |   0.0 | 30.09
Neigh   | 0.12522    | 0.12522    | 0.12522    |   0.0 |  6.02
Comm    | 0.0058824  | 0.0058824  | 0.0058824  |   0.0 |  0.28
Output  | 0          | 0          | 0          |   0.0 |  0.00
Modify  | 0.026834   | 0.026834   | 0.026834   |   0.0 |  1.29
Other   |            | 0.2488     |            |       | 11.95

Nlocal:           2280 ave        2280 max        2280 min
Histogram: 1 0 0 0 0 0 0 0 0 0
Nghost:              0 ave           0 max           0 min
Histogram: 1 0 0 0 0 0 0 0 0 0
Neighs:           6921 ave        6921 max        6921 min
Histogram: 1 0 0 0 0 0 0 0 0 0

Total # of neighbors = 6921
Ave neighs/atom = 3.0355263
Ave special neighs/atom = 12.2
Neighbor list builds = 82
Dangerous builds = 0
System init for write_restart ...
Generated 0 of 21 mixed pair_coeff terms from geometric mixing rule
Total wall time: 0:00:02
LAMMPS Runtime: 0.0hrs 0.0min 2.5sec
Updating metadata with run info ...
Done.
