Loading python version 3.12.3
Removing conda version miniforge3-24.7.1
No conda package cache directories found outside your home directory. To
prevent conda from filling up your home directory, you can create a new
directory at `/work/pi_<your_pi_name>/$USER/.conda/pkgs` and reload the module. 
No conda environment directories found outside your home directory. To prevent
conda from filling up your home directory, you can create a new directory at
`/work/pi_<your_pi_name>/$USER/.conda/envs` and reload the module. 
Loading conda version miniforge3-24.7.1
Loading libpciaccess version 0.17
Loading libiconv version 1.17
Loading xz version 5.4.6
Loading zlib-ng version 2.1.6
Loading libxml2 version 2.10.3
Loading ncurses version 6.5
Loading hwloc version 2.9.1
Loading openssl version 3.0.13
Loading libevent version 2.1.12
Loading numactl version 2.0.14
Loading openssh version 9.6p1
Loading slurm version 23.11.8
Loading openmpi version 5.0.3

######################################
######################################

    Coarse-Grained Shell Simulator   
    
        Kyle Thomas Sullivan
       kyltsullivan@umass.edu
       
######################################
######################################

Using curvsim v2

######################################
Running data/examples/2d/emin/wx-4.900-t0-0.600-Nbeads-15/fraction-0.333/species-1/r0-{'A': 6.5}/sigma-0.25000/kh-100.00000/nshells-5/cg-12
Run number 1
Using stack-1species-1k0.py to create data file...
nshells = 5
...preparing new simulation data
...making data file
Compute time to create data file: 0d - 0hrs 0min 0.1313002109527588sec
Updating metadata with start time...
Executing LAMMPS...
LAMMPS (23 Jun 2022 - Update 2)
Reading data file ...
  orthogonal box = (-9.8 -26 -0.5) to (9.8 58.5 0.5)
  1 by 1 by 1 MPI processor grid
  reading atoms ...
  150 atoms
  scanning bonds ...
  4 = max bonds/atom
  reading bonds ...
  355 bonds
Finding 1-2 1-3 1-4 neighbors ...
  special bond factors lj:    0        0        0       
  special bond factors coul:  0        0        0       
     5 = max # of 1-2 neighbors
    20 = max # of 1-3 neighbors
   100 = max # of 1-4 neighbors
    13 = max # of special neighbors
  special bonds CPU = 0.001 seconds
  read_data CPU = 0.028 seconds
New timer settings: style=normal  mode=nosync  timeout=00:30:00
WARNING: Using 'neigh_modify every 1 delay 0 check yes' setting during minimization (../min.cpp:187)
Generated 0 of 21 mixed pair_coeff terms from geometric mixing rule
Neighbor list info ...
  update every 1 steps, delay 0 steps, check yes
  max neighbors/atom: 2000, page size: 100000
  master list distance cutoff = 1.55
  ghost atom cutoff = 2.6
  binsize = 0.775, bins = 26 110 2
  1 neighbor lists, perpetual/occasional/extra = 1 0 0
  (1) pair lj/expand, perpetual
      attributes: half, newton on
      pair build: half/bin/newton
      stencil: half/bin/2d
      bin: standard
Setting up cg style minimization ...
  Unit style    : lj
  Current step  : 0
  Walltime left : 0:29:59.96
Per MPI rank memory allocation (min/avg/max) = 11.26 | 11.26 | 11.26 Mbytes
   Step         TotEng         KinEng         PotEng         E_pair         E_bond          Temp          Press     
         0  -9.0356684      0             -9.0356684     -9.2182866      0.18261815     0             -0.02632312   
       156  -10.542434      0             -10.542434     -11.085532      0.54309818     0             -4.8251609e-05
Loop time of 0.0239266 on 1 procs for 156 steps with 150 atoms

91.7% CPU use with 1 MPI tasks x no OpenMP threads

Minimization stats:
  Stopping criterion = energy tolerance
  Energy initial, next-to-last, final = 
     -9.03566840795328  -10.5424340839808  -10.5424340839896
  Force two-norm initial, final = 16.951831 0.40894655
  Force max component initial, final = 2.2188906 0.10081349
  Final line search alpha, max atom move = 0.030997835 0.0031249999
  Iterations, force evaluations = 156 952

MPI task timing breakdown:
Section |  min time  |  avg time  |  max time  |%varavg| %total
---------------------------------------------------------------
Pair    | 0.0083605  | 0.0083605  | 0.0083605  |   0.0 | 34.94
Bond    | 0.007111   | 0.007111   | 0.007111   |   0.0 | 29.72
Neigh   | 0.0038506  | 0.0038506  | 0.0038506  |   0.0 | 16.09
Comm    | 0.00035362 | 0.00035362 | 0.00035362 |   0.0 |  1.48
Output  | 0          | 0          | 0          |   0.0 |  0.00
Modify  | 0.00032975 | 0.00032975 | 0.00032975 |   0.0 |  1.38
Other   |            | 0.003921   |            |       | 16.39

Nlocal:            150 ave         150 max         150 min
Histogram: 1 0 0 0 0 0 0 0 0 0
Nghost:              0 ave           0 max           0 min
Histogram: 1 0 0 0 0 0 0 0 0 0
Neighs:            294 ave         294 max         294 min
Histogram: 1 0 0 0 0 0 0 0 0 0

Total # of neighbors = 294
Ave neighs/atom = 1.96
Ave special neighs/atom = 11.4
Neighbor list builds = 22
Dangerous builds = 0
System init for write_restart ...
Generated 0 of 21 mixed pair_coeff terms from geometric mixing rule
Total wall time: 0:00:00
LAMMPS Runtime: 0.0hrs 0.0min 1.2sec
Updating metadata with run info ...
Done.
