Loading python version 3.12.3
Removing conda version miniforge3-24.7.1
No conda package cache directories found outside your home directory. To
prevent conda from filling up your home directory, you can create a new
directory at `/work/pi_<your_pi_name>/$USER/.conda/pkgs` and reload the module. 
No conda environment directories found outside your home directory. To prevent
conda from filling up your home directory, you can create a new directory at
`/work/pi_<your_pi_name>/$USER/.conda/envs` and reload the module. 
Loading conda version miniforge3-24.7.1
Loading libpciaccess version 0.17
Loading libiconv version 1.17
Loading xz version 5.4.6
Loading zlib-ng version 2.1.6
Loading libxml2 version 2.10.3
Loading ncurses version 6.5
Loading hwloc version 2.9.1
Loading openssl version 3.0.13
Loading libevent version 2.1.12
Loading numactl version 2.0.14
Loading openssh version 9.6p1
Loading slurm version 23.11.8
Loading openmpi version 5.0.3

######################################
######################################

    Coarse-Grained Shell Simulator   
    
        Kyle Thomas Sullivan
       kyltsullivan@umass.edu
       
######################################
######################################

Using curvsim v2

######################################
Running data/examples/2d/emin/wx-4.900-t0-0.600-Nbeads-15/fraction-0.333/species-1/r0-{'A': 6.5}/sigma-0.25000/kh-100.00000/nshells-22/cg-12
Run number 1
Using stack-1species-1k0.py to create data file...
nshells = 22
...preparing new simulation data
...making data file
Compute time to create data file: 0d - 0hrs 0min 0.04784798622131348sec
Updating metadata with start time...
Executing LAMMPS...
LAMMPS (23 Jun 2022 - Update 2)
Reading data file ...
  orthogonal box = (-9.8 -26 -0.5) to (9.8 169 0.5)
  1 by 1 by 1 MPI processor grid
  reading atoms ...
  660 atoms
  scanning bonds ...
  4 = max bonds/atom
  reading bonds ...
  1562 bonds
Finding 1-2 1-3 1-4 neighbors ...
  special bond factors lj:    0        0        0       
  special bond factors coul:  0        0        0       
     5 = max # of 1-2 neighbors
    20 = max # of 1-3 neighbors
   100 = max # of 1-4 neighbors
    13 = max # of special neighbors
  special bonds CPU = 0.001 seconds
  read_data CPU = 0.021 seconds
New timer settings: style=normal  mode=nosync  timeout=00:30:00
WARNING: Using 'neigh_modify every 1 delay 0 check yes' setting during minimization (../min.cpp:187)
Generated 0 of 21 mixed pair_coeff terms from geometric mixing rule
Neighbor list info ...
  update every 1 steps, delay 0 steps, check yes
  max neighbors/atom: 2000, page size: 100000
  master list distance cutoff = 1.55
  ghost atom cutoff = 2.6
  binsize = 0.775, bins = 26 252 2
  1 neighbor lists, perpetual/occasional/extra = 1 0 0
  (1) pair lj/expand, perpetual
      attributes: half, newton on
      pair build: half/bin/newton
      stencil: half/bin/2d
      bin: standard
Setting up cg style minimization ...
  Unit style    : lj
  Current step  : 0
  Walltime left : 0:29:59.97
Per MPI rank memory allocation (min/avg/max) = 11.42 | 11.42 | 11.42 Mbytes
   Step         TotEng         KinEng         PotEng         E_pair         E_bond          Temp          Press     
         0  -48.514369      0             -48.514369     -51.967252      3.4528831      0             -0.060771841  
       115  -55.345539      0             -55.345539     -58.141623      2.7960843      0             -0.0093763846 
Loop time of 0.0315096 on 1 procs for 115 steps with 660 atoms

99.9% CPU use with 1 MPI tasks x no OpenMP threads

Minimization stats:
  Stopping criterion = energy tolerance
  Energy initial, next-to-last, final = 
     -48.5143690890478  -55.3455385187395  -55.3455385187917
  Force two-norm initial, final = 39.892531 2.2484169
  Force max component initial, final = 2.3458803 0.53365146
  Final line search alpha, max atom move = 0.011711764 0.00625
  Iterations, force evaluations = 115 589

MPI task timing breakdown:
Section |  min time  |  avg time  |  max time  |%varavg| %total
---------------------------------------------------------------
Pair    | 0.013923   | 0.013923   | 0.013923   |   0.0 | 44.18
Bond    | 0.010084   | 0.010084   | 0.010084   |   0.0 | 32.00
Neigh   | 0.00063731 | 0.00063731 | 0.00063731 |   0.0 |  2.02
Comm    | 0.00012408 | 0.00012408 | 0.00012408 |   0.0 |  0.39
Output  | 0          | 0          | 0          |   0.0 |  0.00
Modify  | 0.00038232 | 0.00038232 | 0.00038232 |   0.0 |  1.21
Other   |            | 0.006359   |            |       | 20.18

Nlocal:            660 ave         660 max         660 min
Histogram: 1 0 0 0 0 0 0 0 0 0
Nghost:              0 ave           0 max           0 min
Histogram: 1 0 0 0 0 0 0 0 0 0
Neighs:           1561 ave        1561 max        1561 min
Histogram: 1 0 0 0 0 0 0 0 0 0

Total # of neighbors = 1561
Ave neighs/atom = 2.3651515
Ave special neighs/atom = 11.4
Neighbor list builds = 3
Dangerous builds = 0
System init for write_restart ...
Generated 0 of 21 mixed pair_coeff terms from geometric mixing rule
Total wall time: 0:00:00
LAMMPS Runtime: 0.0hrs 0.0min 0.7sec
Updating metadata with run info ...
Done.
