Loading python version 3.12.3
Removing conda version miniforge3-24.7.1
No conda package cache directories found outside your home directory. To
prevent conda from filling up your home directory, you can create a new
directory at `/work/pi_<your_pi_name>/$USER/.conda/pkgs` and reload the module. 
No conda environment directories found outside your home directory. To prevent
conda from filling up your home directory, you can create a new directory at
`/work/pi_<your_pi_name>/$USER/.conda/envs` and reload the module. 
Loading conda version miniforge3-24.7.1
Loading libpciaccess version 0.17
Loading libiconv version 1.17
Loading xz version 5.4.6
Loading zlib-ng version 2.1.6
Loading libxml2 version 2.10.3
Loading ncurses version 6.5
Loading hwloc version 2.9.1
Loading openssl version 3.0.13
Loading libevent version 2.1.12
Loading numactl version 2.0.14
Loading openssh version 9.6p1
Loading slurm version 23.11.8
Loading openmpi version 5.0.3

######################################
######################################

    Coarse-Grained Shell Simulator   
    
        Kyle Thomas Sullivan
       kyltsullivan@umass.edu
       
######################################
######################################

Using curvsim v2

######################################
Running data/examples/2d/emin/wx-4.900-t0-0.600-Nbeads-15/fraction-0.333/species-1/r0-{'A': 6.5}/sigma-0.25000/kh-100.00000/nshells-26/cg-12
Run number 1
Using stack-1species-1k0.py to create data file...
nshells = 26
...preparing new simulation data
...making data file
Compute time to create data file: 0d - 0hrs 0min 0.06629419326782227sec
Updating metadata with start time...
Executing LAMMPS...
LAMMPS (23 Jun 2022 - Update 2)
Reading data file ...
  orthogonal box = (-9.8 -26 -0.5) to (9.8 195 0.5)
  1 by 1 by 1 MPI processor grid
  reading atoms ...
  780 atoms
  scanning bonds ...
  4 = max bonds/atom
  reading bonds ...
  1846 bonds
Finding 1-2 1-3 1-4 neighbors ...
  special bond factors lj:    0        0        0       
  special bond factors coul:  0        0        0       
     5 = max # of 1-2 neighbors
    20 = max # of 1-3 neighbors
   100 = max # of 1-4 neighbors
    13 = max # of special neighbors
  special bonds CPU = 0.003 seconds
  read_data CPU = 0.030 seconds
New timer settings: style=normal  mode=nosync  timeout=00:30:00
WARNING: Using 'neigh_modify every 1 delay 0 check yes' setting during minimization (../min.cpp:187)
Generated 0 of 21 mixed pair_coeff terms from geometric mixing rule
Neighbor list info ...
  update every 1 steps, delay 0 steps, check yes
  max neighbors/atom: 2000, page size: 100000
  master list distance cutoff = 1.55
  ghost atom cutoff = 2.6
  binsize = 0.775, bins = 26 286 2
  1 neighbor lists, perpetual/occasional/extra = 1 0 0
  (1) pair lj/expand, perpetual
      attributes: half, newton on
      pair build: half/bin/newton
      stencil: half/bin/2d
      bin: standard
Setting up cg style minimization ...
  Unit style    : lj
  Current step  : 0
  Walltime left : 0:29:59.97
Per MPI rank memory allocation (min/avg/max) = 11.46 | 11.46 | 11.46 Mbytes
   Step         TotEng         KinEng         PotEng         E_pair         E_bond          Temp          Press     
         0  -57.567383      0             -57.567383     -62.065543      4.4981597      0             -0.063070961  
       440  -66.225629      0             -66.225629     -69.632333      3.4067045      0             -5.6311202e-07
Loop time of 0.219857 on 1 procs for 440 steps with 780 atoms

97.8% CPU use with 1 MPI tasks x no OpenMP threads

Minimization stats:
  Stopping criterion = energy tolerance
  Energy initial, next-to-last, final = 
     -57.5673834540903  -66.2256289360091   -66.225628936072
  Force two-norm initial, final = 43.079583 0.00012854652
  Force max component initial, final = 2.3462073 1.2697159e-05
  Final line search alpha, max atom move = 1 1.2697159e-05
  Iterations, force evaluations = 440 1716

MPI task timing breakdown:
Section |  min time  |  avg time  |  max time  |%varavg| %total
---------------------------------------------------------------
Pair    | 0.092041   | 0.092041   | 0.092041   |   0.0 | 41.86
Bond    | 0.064109   | 0.064109   | 0.064109   |   0.0 | 29.16
Neigh   | 0.027444   | 0.027444   | 0.027444   |   0.0 | 12.48
Comm    | 0.0014201  | 0.0014201  | 0.0014201  |   0.0 |  0.65
Output  | 0          | 0          | 0          |   0.0 |  0.00
Modify  | 0.0025862  | 0.0025862  | 0.0025862  |   0.0 |  1.18
Other   |            | 0.03226    |            |       | 14.67

Nlocal:            780 ave         780 max         780 min
Histogram: 1 0 0 0 0 0 0 0 0 0
Nghost:              0 ave           0 max           0 min
Histogram: 1 0 0 0 0 0 0 0 0 0
Neighs:           1855 ave        1855 max        1855 min
Histogram: 1 0 0 0 0 0 0 0 0 0

Total # of neighbors = 1855
Ave neighs/atom = 2.3782051
Ave special neighs/atom = 11.4
Neighbor list builds = 62
Dangerous builds = 0
System init for write_restart ...
Generated 0 of 21 mixed pair_coeff terms from geometric mixing rule
Total wall time: 0:00:00
LAMMPS Runtime: 0.0hrs 0.0min 0.9sec
Updating metadata with run info ...
Done.
