Loading python version 3.12.3
Removing conda version miniforge3-24.7.1
No conda package cache directories found outside your home directory. To
prevent conda from filling up your home directory, you can create a new
directory at `/work/pi_<your_pi_name>/$USER/.conda/pkgs` and reload the module. 
No conda environment directories found outside your home directory. To prevent
conda from filling up your home directory, you can create a new directory at
`/work/pi_<your_pi_name>/$USER/.conda/envs` and reload the module. 
Loading conda version miniforge3-24.7.1
Loading libpciaccess version 0.17
Loading libiconv version 1.17
Loading xz version 5.4.6
Loading zlib-ng version 2.1.6
Loading libxml2 version 2.10.3
Loading ncurses version 6.5
Loading hwloc version 2.9.1
Loading openssl version 3.0.13
Loading libevent version 2.1.12
Loading numactl version 2.0.14
Loading openssh version 9.6p1
Loading slurm version 23.11.8
Loading openmpi version 5.0.3

######################################
######################################

    Coarse-Grained Shell Simulator   
    
        Kyle Thomas Sullivan
       kyltsullivan@umass.edu
       
######################################
######################################

Using curvsim v2

######################################
Running data/examples/2d/emin/wx-4.900-t0-0.600-Nbeads-15/fraction-0.333/species-1/r0-{'A': 6.5}/sigma-0.25000/kh-100.00000/nshells-6/cg-12
Run number 1
Using stack-1species-1k0.py to create data file...
nshells = 6
...preparing new simulation data
...making data file
Compute time to create data file: 0d - 0hrs 0min 0.170396089553833sec
Updating metadata with start time...
Executing LAMMPS...
LAMMPS (23 Jun 2022 - Update 2)
Reading data file ...
  orthogonal box = (-9.8 -26 -0.5) to (9.8 65 0.5)
  1 by 1 by 1 MPI processor grid
  reading atoms ...
  180 atoms
  scanning bonds ...
  4 = max bonds/atom
  reading bonds ...
  426 bonds
Finding 1-2 1-3 1-4 neighbors ...
  special bond factors lj:    0        0        0       
  special bond factors coul:  0        0        0       
     5 = max # of 1-2 neighbors
    20 = max # of 1-3 neighbors
   100 = max # of 1-4 neighbors
    13 = max # of special neighbors
  special bonds CPU = 0.001 seconds
  read_data CPU = 0.028 seconds
New timer settings: style=normal  mode=nosync  timeout=00:30:00
WARNING: Using 'neigh_modify every 1 delay 0 check yes' setting during minimization (../min.cpp:187)
Generated 0 of 21 mixed pair_coeff terms from geometric mixing rule
Neighbor list info ...
  update every 1 steps, delay 0 steps, check yes
  max neighbors/atom: 2000, page size: 100000
  master list distance cutoff = 1.55
  ghost atom cutoff = 2.6
  binsize = 0.775, bins = 26 118 2
  1 neighbor lists, perpetual/occasional/extra = 1 0 0
  (1) pair lj/expand, perpetual
      attributes: half, newton on
      pair build: half/bin/newton
      stencil: half/bin/2d
      bin: standard
Setting up cg style minimization ...
  Unit style    : lj
  Current step  : 0
  Walltime left : 0:29:59.96
Per MPI rank memory allocation (min/avg/max) = 11.27 | 11.27 | 11.27 Mbytes
   Step         TotEng         KinEng         PotEng         E_pair         E_bond          Temp          Press     
         0  -11.371929      0             -11.371929     -11.650271      0.27834276     0             -0.030913269  
       226  -13.196301      0             -13.196301     -13.875693      0.67939182     0             -6.1914468e-09
Loop time of 0.0298025 on 1 procs for 226 steps with 180 atoms

96.9% CPU use with 1 MPI tasks x no OpenMP threads

Minimization stats:
  Stopping criterion = energy tolerance
  Energy initial, next-to-last, final = 
     -11.3719286905707  -13.1963007125403  -13.1963007125523
  Force two-norm initial, final = 19.178527 5.7958265e-05
  Force max component initial, final = 2.3120844 1.2467836e-05
  Final line search alpha, max atom move = 1 1.2467836e-05
  Iterations, force evaluations = 226 1047

MPI task timing breakdown:
Section |  min time  |  avg time  |  max time  |%varavg| %total
---------------------------------------------------------------
Pair    | 0.012228   | 0.012228   | 0.012228   |   0.0 | 41.03
Bond    | 0.0090849  | 0.0090849  | 0.0090849  |   0.0 | 30.48
Neigh   | 0.0025976  | 0.0025976  | 0.0025976  |   0.0 |  8.72
Comm    | 0.00041859 | 0.00041859 | 0.00041859 |   0.0 |  1.40
Output  | 0          | 0          | 0          |   0.0 |  0.00
Modify  | 0.00041049 | 0.00041049 | 0.00041049 |   0.0 |  1.38
Other   |            | 0.005063   |            |       | 16.99

Nlocal:            180 ave         180 max         180 min
Histogram: 1 0 0 0 0 0 0 0 0 0
Nghost:              0 ave           0 max           0 min
Histogram: 1 0 0 0 0 0 0 0 0 0
Neighs:            367 ave         367 max         367 min
Histogram: 1 0 0 0 0 0 0 0 0 0

Total # of neighbors = 367
Ave neighs/atom = 2.0388889
Ave special neighs/atom = 11.4
Neighbor list builds = 25
Dangerous builds = 0
System init for write_restart ...
Generated 0 of 21 mixed pair_coeff terms from geometric mixing rule
Total wall time: 0:00:00
LAMMPS Runtime: 0.0hrs 0.0min 1.2sec
Updating metadata with run info ...
Done.
